88 98 49 28 43 98 53 52 84 66 23 80 36 21 23 91 61 96 64 45 76 30 45 88 66 
57 30 86 50 97 96 59 94 67 14 60 47 85 43 36 30 94 50 52 63 55 50 40 31 43 
32 45 44 83 17 82 74 53 50 73 88 57 19 79 85 44 17 32 51 89 96 11 55 28 11 
30 94 69 46 29 27 26 45 79 86 60 40 38 40 73 88 54 26 95 38 75 78 71 62 73 
721.00
